nj = 20;
due =  [972 1146 933 1146 975 636 1329 1086 1212 1137 981 957 786 1026 993 792 831
     972 1200 1260];
nm = 15;
Ops = {
 <1 1 4 92 0 16 4 1>
 <1 1 4 70 0 16 6 2>
 <1 1 4 59 0 16 9 3>
 <1 1 4 52 0 16 12 4>
 <1 1 4 43 0 16 17 5>
 <1 2 2 49 0 4 5 1>
 <1 2 2 37 0 4 8 2>
 <1 2 2 31 0 4 12 3>
 <1 2 2 28 0 4 15 4>
 <1 2 2 23 0 4 22 5>
 <1 3 3 93 0 2 3 1>
 <1 3 3 71 0 2 5 2>
 <1 3 3 60 0 2 7 3>
 <1 3 3 53 0 2 9 4>
 <1 3 3 44 0 2 13 5>
 <1 4 7 48 0 3 5 1>
 <1 4 7 36 0 3 8 2>
 <1 4 7 30 0 3 12 3>
 <1 4 7 27 0 3 15 4>
 <1 4 7 22 0 3 22 5>
 <1 5 1 1 0 7 3 1>
 <1 5 1 0 0 7 5 2>
 <1 5 1 0 0 7 7 3>
 <1 5 1 0 0 7 9 4>
 <1 5 1 0 0 7 13 5>
 <1 6 5 52 0 1 5 1>
 <1 6 5 40 0 1 8 2>
 <1 6 5 33 0 1 12 3>
 <1 6 5 29 0 1 15 4>
 <1 6 5 24 0 1 22 5>
 <1 7 6 57 0 5 3 1>
 <1 7 6 43 0 5 5 2>
 <1 7 6 36 0 5 7 3>
 <1 7 6 32 0 5 9 4>
 <1 7 6 27 0 5 13 5>
 <1 8 9 16 0 6 4 1>
 <1 8 9 12 0 6 6 2>
 <1 8 9 10 0 6 9 3>
 <1 8 9 9 0 6 12 4>
 <1 8 9 7 0 6 17 5>
 <1 9 13 6 0 9 4 1>
 <1 9 13 4 0 9 6 2>
 <1 9 13 3 0 9 9 3>
 <1 9 13 3 0 9 12 4>
 <1 9 13 2 0 9 17 5>
 <1 10 14 6 0 13 4 1>
 <1 10 14 4 0 13 6 2>
 <1 10 14 3 0 13 9 3>
 <1 10 14 3 0 13 12 4>
 <1 10 14 2 0 13 17 5>
 <1 11 12 19 0 14 4 1>
 <1 11 12 14 0 14 6 2>
 <1 11 12 12 0 14 9 3>
 <1 11 12 10 0 14 12 4>
 <1 11 12 9 0 14 17 5>
 <1 12 10 96 0 12 3 1>
 <1 12 10 73 0 12 5 2>
 <1 12 10 61 0 12 7 3>
 <1 12 10 54 0 12 9 4>
 <1 12 10 45 0 12 13 5>
 <1 13 8 27 0 10 4 1>
 <1 13 8 20 0 10 6 2>
 <1 13 8 17 0 10 9 3>
 <1 13 8 15 0 10 12 4>
 <1 13 8 12 0 10 17 5>
 <1 14 15 76 0 8 3 1>
 <1 14 15 58 0 8 5 2>
 <1 14 15 49 0 8 7 3>
 <1 14 15 43 0 8 9 4>
 <1 14 15 36 0 8 13 5>
 <1 15 11 60 1 15 3 1>
 <1 15 11 46 1 15 5 2>
 <1 15 11 38 1 15 7 3>
 <1 15 11 34 1 15 9 4>
 <1 15 11 28 1 15 13 5>
 <2 1 6 4 0 16 3 1>
 <2 1 6 3 0 16 5 2>
 <2 1 6 2 0 16 7 3>
 <2 1 6 2 0 16 9 4>
 <2 1 6 1 0 16 13 5>
 <2 2 4 96 0 6 4 1>
 <2 2 4 73 0 6 6 2>
 <2 2 4 61 0 6 9 3>
 <2 2 4 54 0 6 12 4>
 <2 2 4 45 0 6 17 5>
 <2 3 7 52 0 4 4 1>
 <2 3 7 40 0 4 6 2>
 <2 3 7 33 0 4 9 3>
 <2 3 7 29 0 4 12 4>
 <2 3 7 24 0 4 17 5>
 <2 4 2 87 0 7 3 1>
 <2 4 2 66 0 7 5 2>
 <2 4 2 56 0 7 7 3>
 <2 4 2 49 0 7 9 4>
 <2 4 2 41 0 7 13 5>
 <2 5 3 94 0 2 3 1>
 <2 5 3 72 0 2 5 2>
 <2 5 3 60 0 2 7 3>
 <2 5 3 53 0 2 9 4>
 <2 5 3 44 0 2 13 5>
 <2 6 5 83 0 3 3 1>
 <2 6 5 63 0 3 5 2>
 <2 6 5 53 0 3 7 3>
 <2 6 5 47 0 3 9 4>
 <2 6 5 39 0 3 13 5>
 <2 7 1 9 0 5 5 1>
 <2 7 1 6 0 5 8 2>
 <2 7 1 5 0 5 12 3>
 <2 7 1 5 0 5 15 4>
 <2 7 1 4 0 5 22 5>
 <2 8 12 85 0 1 4 1>
 <2 8 12 65 0 1 6 2>
 <2 8 12 54 0 1 9 3>
 <2 8 12 48 0 1 12 4>
 <2 8 12 40 0 1 17 5>
 <2 9 11 47 0 12 3 1>
 <2 9 11 36 0 12 5 2>
 <2 9 11 30 0 12 7 3>
 <2 9 11 26 0 12 9 4>
 <2 9 11 22 0 12 13 5>
 <2 10 9 63 0 11 4 1>
 <2 10 9 48 0 11 6 2>
 <2 10 9 40 0 11 9 3>
 <2 10 9 36 0 11 12 4>
 <2 10 9 30 0 11 17 5>
 <2 11 10 31 0 9 4 1>
 <2 11 10 23 0 9 6 2>
 <2 11 10 20 0 9 9 3>
 <2 11 10 17 0 9 12 4>
 <2 11 10 14 0 9 17 5>
 <2 12 14 26 0 10 4 1>
 <2 12 14 20 0 10 6 2>
 <2 12 14 16 0 10 9 3>
 <2 12 14 14 0 10 12 4>
 <2 12 14 12 0 10 17 5>
 <2 13 13 46 0 14 3 1>
 <2 13 13 35 0 14 5 2>
 <2 13 13 29 0 14 7 3>
 <2 13 13 26 0 14 9 4>
 <2 13 13 21 0 14 13 5>
 <2 14 8 49 0 13 5 1>
 <2 14 8 37 0 13 8 2>
 <2 14 8 31 0 13 12 3>
 <2 14 8 28 0 13 15 4>
 <2 14 8 23 0 13 22 5>
 <2 15 15 48 1 8 4 1>
 <2 15 15 36 1 8 6 2>
 <2 15 15 30 1 8 9 3>
 <2 15 15 27 1 8 12 4>
 <2 15 15 22 1 8 17 5>
 <3 1 2 34 0 16 4 1>
 <3 1 2 26 0 16 6 2>
 <3 1 2 21 0 16 9 3>
 <3 1 2 19 0 16 12 4>
 <3 1 2 16 0 16 17 5>
 <3 2 7 34 0 2 4 1>
 <3 2 7 26 0 2 6 2>
 <3 2 7 21 0 2 9 3>
 <3 2 7 19 0 2 12 4>
 <3 2 7 16 0 2 17 5>
 <3 3 5 37 0 7 4 1>
 <3 3 5 28 0 7 6 2>
 <3 3 5 23 0 7 9 3>
 <3 3 5 21 0 7 12 4>
 <3 3 5 17 0 7 17 5>
 <3 4 3 82 0 5 5 1>
 <3 4 3 63 0 5 8 2>
 <3 4 3 52 0 5 12 3>
 <3 4 3 46 0 5 15 4>
 <3 4 3 39 0 5 22 5>
 <3 5 1 25 0 3 5 1>
 <3 5 1 19 0 3 8 2>
 <3 5 1 16 0 3 12 3>
 <3 5 1 14 0 3 15 4>
 <3 5 1 11 0 3 22 5>
 <3 6 6 43 0 1 3 1>
 <3 6 6 33 0 1 5 2>
 <3 6 6 27 0 1 7 3>
 <3 6 6 24 0 1 9 4>
 <3 6 6 20 0 1 13 5>
 <3 7 4 11 0 6 5 1>
 <3 7 4 8 0 6 8 2>
 <3 7 4 7 0 6 12 3>
 <3 7 4 6 0 6 15 4>
 <3 7 4 5 0 6 22 5>
 <3 8 10 71 0 4 4 1>
 <3 8 10 54 0 4 6 2>
 <3 8 10 45 0 4 9 3>
 <3 8 10 40 0 4 12 4>
 <3 8 10 33 0 4 17 5>
 <3 9 15 55 0 10 3 1>
 <3 9 15 42 0 10 5 2>
 <3 9 15 35 0 10 7 3>
 <3 9 15 31 0 10 9 4>
 <3 9 15 26 0 10 13 5>
 <3 10 8 34 0 15 5 1>
 <3 10 8 26 0 15 8 2>
 <3 10 8 21 0 15 12 3>
 <3 10 8 19 0 15 15 4>
 <3 10 8 16 0 15 22 5>
 <3 11 12 77 0 8 5 1>
 <3 11 12 59 0 8 8 2>
 <3 11 12 49 0 8 12 3>
 <3 11 12 44 0 8 15 4>
 <3 11 12 36 0 8 22 5>
 <3 12 13 20 0 12 3 1>
 <3 12 13 15 0 12 5 2>
 <3 12 13 12 0 12 7 3>
 <3 12 13 11 0 12 9 4>
 <3 12 13 9 0 12 13 5>
 <3 13 9 89 0 13 5 1>
 <3 13 9 68 0 13 8 2>
 <3 13 9 57 0 13 12 3>
 <3 13 9 50 0 13 15 4>
 <3 13 9 42 0 13 22 5>
 <3 14 11 23 0 9 4 1>
 <3 14 11 17 0 9 6 2>
 <3 14 11 14 0 9 9 3>
 <3 14 11 13 0 9 12 4>
 <3 14 11 10 0 9 17 5>
 <3 15 14 32 1 11 4 1>
 <3 15 14 24 1 11 6 2>
 <3 15 14 20 1 11 9 3>
 <3 15 14 18 1 11 12 4>
 <3 15 14 15 1 11 17 5>
 <4 1 4 49 0 16 5 1>
 <4 1 4 37 0 16 8 2>
 <4 1 4 31 0 16 12 3>
 <4 1 4 28 0 16 15 4>
 <4 1 4 23 0 16 22 5>
 <4 2 6 12 0 4 4 1>
 <4 2 6 9 0 4 6 2>
 <4 2 6 7 0 4 9 3>
 <4 2 6 6 0 4 12 4>
 <4 2 6 5 0 4 17 5>
 <4 3 7 52 0 6 4 1>
 <4 3 7 40 0 6 6 2>
 <4 3 7 33 0 6 9 3>
 <4 3 7 29 0 6 12 4>
 <4 3 7 24 0 6 17 5>
 <4 4 3 76 0 7 4 1>
 <4 4 3 58 0 7 6 2>
 <4 4 3 49 0 7 9 3>
 <4 4 3 43 0 7 12 4>
 <4 4 3 36 0 7 17 5>
 <4 5 1 64 0 3 3 1>
 <4 5 1 49 0 3 5 2>
 <4 5 1 41 0 3 7 3>
 <4 5 1 36 0 3 9 4>
 <4 5 1 30 0 3 13 5>
 <4 6 2 51 0 1 5 1>
 <4 6 2 39 0 1 8 2>
 <4 6 2 32 0 1 12 3>
 <4 6 2 29 0 1 15 4>
 <4 6 2 24 0 1 22 5>
 <4 7 5 84 0 2 4 1>
 <4 7 5 64 0 2 6 2>
 <4 7 5 54 0 2 9 3>
 <4 7 5 48 0 2 12 4>
 <4 7 5 40 0 2 17 5>
 <4 8 11 42 0 5 5 1>
 <4 8 11 32 0 5 8 2>
 <4 8 11 27 0 5 12 3>
 <4 8 11 24 0 5 15 4>
 <4 8 11 20 0 5 22 5>
 <4 9 13 5 0 11 4 1>
 <4 9 13 3 0 11 6 2>
 <4 9 13 3 0 11 9 3>
 <4 9 13 2 0 11 12 4>
 <4 9 13 2 0 11 17 5>
 <4 10 8 45 0 13 5 1>
 <4 10 8 34 0 13 8 2>
 <4 10 8 29 0 13 12 3>
 <4 10 8 25 0 13 15 4>
 <4 10 8 21 0 13 22 5>
 <4 11 9 20 0 8 5 1>
 <4 11 9 15 0 8 8 2>
 <4 11 9 12 0 8 12 3>
 <4 11 9 11 0 8 15 4>
 <4 11 9 9 0 8 22 5>
 <4 12 12 93 0 9 5 1>
 <4 12 12 71 0 9 8 2>
 <4 12 12 60 0 9 12 3>
 <4 12 12 53 0 9 15 4>
 <4 12 12 44 0 9 22 5>
 <4 13 15 48 0 12 5 1>
 <4 13 15 36 0 12 8 2>
 <4 13 15 30 0 12 12 3>
 <4 13 15 27 0 12 15 4>
 <4 13 15 22 0 12 22 5>
 <4 14 14 75 0 15 3 1>
 <4 14 14 57 0 15 5 2>
 <4 14 14 48 0 15 7 3>
 <4 14 14 42 0 15 9 4>
 <4 14 14 35 0 15 13 5>
 <4 15 10 100 1 14 5 1>
 <4 15 10 76 1 14 8 2>
 <4 15 10 64 1 14 12 3>
 <4 15 10 57 1 14 15 4>
 <4 15 10 47 1 14 22 5>
 <5 1 3 35 0 16 4 1>
 <5 1 3 26 0 16 6 2>
 <5 1 3 22 0 16 9 3>
 <5 1 3 20 0 16 12 4>
 <5 1 3 16 0 16 17 5>
 <5 2 2 1 0 3 3 1>
 <5 2 2 0 0 3 5 2>
 <5 2 2 0 0 3 7 3>
 <5 2 2 0 0 3 9 4>
 <5 2 2 0 0 3 13 5>
 <5 3 4 15 0 2 5 1>
 <5 3 4 11 0 2 8 2>
 <5 3 4 9 0 2 12 3>
 <5 3 4 8 0 2 15 4>
 <5 3 4 7 0 2 22 5>
 <5 4 7 49 0 4 5 1>
 <5 4 7 37 0 4 8 2>
 <5 4 7 31 0 4 12 3>
 <5 4 7 28 0 4 15 4>
 <5 4 7 23 0 4 22 5>
 <5 5 6 78 0 7 5 1>
 <5 5 6 60 0 7 8 2>
 <5 5 6 50 0 7 12 3>
 <5 5 6 44 0 7 15 4>
 <5 5 6 37 0 7 22 5>
 <5 6 5 80 0 6 3 1>
 <5 6 5 61 0 6 5 2>
 <5 6 5 51 0 6 7 3>
 <5 6 5 45 0 6 9 4>
 <5 6 5 38 0 6 13 5>
 <5 7 1 99 0 5 5 1>
 <5 7 1 76 0 5 8 2>
 <5 7 1 63 0 5 12 3>
 <5 7 1 56 0 5 15 4>
 <5 7 1 47 0 5 22 5>
 <5 8 10 88 0 1 5 1>
 <5 8 10 67 0 1 8 2>
 <5 8 10 56 0 1 12 3>
 <5 8 10 50 0 1 15 4>
 <5 8 10 41 0 1 22 5>
 <5 9 8 24 0 10 3 1>
 <5 9 8 18 0 10 5 2>
 <5 9 8 15 0 10 7 3>
 <5 9 8 13 0 10 9 4>
 <5 9 8 11 0 10 13 5>
 <5 10 12 20 0 8 4 1>
 <5 10 12 15 0 8 6 2>
 <5 10 12 12 0 8 9 3>
 <5 10 12 11 0 8 12 4>
 <5 10 12 9 0 8 17 5>
 <5 11 11 100 0 12 5 1>
 <5 11 11 76 0 12 8 2>
 <5 11 11 64 0 12 12 3>
 <5 11 11 57 0 12 15 4>
 <5 11 11 47 0 12 22 5>
 <5 12 9 28 0 11 5 1>
 <5 12 9 21 0 11 8 2>
 <5 12 9 18 0 11 12 3>
 <5 12 9 16 0 11 15 4>
 <5 12 9 13 0 11 22 5>
 <5 13 15 71 0 9 5 1>
 <5 13 15 54 0 9 8 2>
 <5 13 15 45 0 9 12 3>
 <5 13 15 40 0 9 15 4>
 <5 13 15 33 0 9 22 5>
 <5 14 14 1 0 15 3 1>
 <5 14 14 0 0 15 5 2>
 <5 14 14 0 0 15 7 3>
 <5 14 14 0 0 15 9 4>
 <5 14 14 0 0 15 13 5>
 <5 15 13 7 1 14 3 1>
 <5 15 13 5 1 14 5 2>
 <5 15 13 4 1 14 7 3>
 <5 15 13 4 1 14 9 4>
 <5 15 13 3 1 14 13 5>
 <6 1 4 69 0 16 3 1>
 <6 1 4 53 0 16 5 2>
 <6 1 4 44 0 16 7 3>
 <6 1 4 39 0 16 9 4>
 <6 1 4 32 0 16 13 5>
 <6 2 7 24 0 4 3 1>
 <6 2 7 18 0 4 5 2>
 <6 2 7 15 0 4 7 3>
 <6 2 7 13 0 4 9 4>
 <6 2 7 11 0 4 13 5>
 <6 3 6 21 0 7 5 1>
 <6 3 6 16 0 7 8 2>
 <6 3 6 13 0 7 12 3>
 <6 3 6 12 0 7 15 4>
 <6 3 6 10 0 7 22 5>
 <6 4 5 3 0 6 4 1>
 <6 4 5 2 0 6 6 2>
 <6 4 5 1 0 6 9 3>
 <6 4 5 1 0 6 12 4>
 <6 4 5 1 0 6 17 5>
 <6 5 2 28 0 5 4 1>
 <6 5 2 21 0 5 6 2>
 <6 5 2 18 0 5 9 3>
 <6 5 2 16 0 5 12 4>
 <6 5 2 13 0 5 17 5>
 <6 6 3 8 0 2 5 1>
 <6 6 3 6 0 2 8 2>
 <6 6 3 5 0 2 12 3>
 <6 6 3 4 0 2 15 4>
 <6 6 3 3 0 2 22 5>
 <6 7 1 42 0 3 5 1>
 <6 7 1 32 0 3 8 2>
 <6 7 1 27 0 3 12 3>
 <6 7 1 24 0 3 15 4>
 <6 7 1 20 0 3 22 5>
 <6 8 11 33 0 1 3 1>
 <6 8 11 25 0 1 5 2>
 <6 8 11 21 0 1 7 3>
 <6 8 11 18 0 1 9 4>
 <6 8 11 15 0 1 13 5>
 <6 9 12 40 0 11 5 1>
 <6 9 12 30 0 11 8 2>
 <6 9 12 25 0 11 12 3>
 <6 9 12 22 0 11 15 4>
 <6 9 12 19 0 11 22 5>
 <6 10 10 50 0 12 5 1>
 <6 10 10 38 0 12 8 2>
 <6 10 10 32 0 12 12 3>
 <6 10 10 28 0 12 15 4>
 <6 10 10 23 0 12 22 5>
 <6 11 9 8 0 10 4 1>
 <6 11 9 6 0 10 6 2>
 <6 11 9 5 0 10 9 3>
 <6 11 9 4 0 10 12 4>
 <6 11 9 3 0 10 17 5>
 <6 12 14 5 0 9 3 1>
 <6 12 14 3 0 9 5 2>
 <6 12 14 3 0 9 7 3>
 <6 12 14 2 0 9 9 4>
 <6 12 14 2 0 9 13 5>
 <6 13 13 13 0 14 3 1>
 <6 13 13 10 0 14 5 2>
 <6 13 13 8 0 14 7 3>
 <6 13 13 7 0 14 9 4>
 <6 13 13 6 0 14 13 5>
 <6 14 8 42 0 13 3 1>
 <6 14 8 32 0 13 5 2>
 <6 14 8 27 0 13 7 3>
 <6 14 8 24 0 13 9 4>
 <6 14 8 20 0 13 13 5>
 <6 15 15 73 1 8 3 1>
 <6 15 15 56 1 8 5 2>
 <6 15 15 47 1 8 7 3>
 <6 15 15 41 1 8 9 4>
 <6 15 15 34 1 8 13 5>
 <7 1 1 83 0 16 3 1>
 <7 1 1 63 0 16 5 2>
 <7 1 1 53 0 16 7 3>
 <7 1 1 47 0 16 9 4>
 <7 1 1 39 0 16 13 5>
 <7 2 5 15 0 1 3 1>
 <7 2 5 11 0 1 5 2>
 <7 2 5 9 0 1 7 3>
 <7 2 5 8 0 1 9 4>
 <7 2 5 7 0 1 13 5>
 <7 3 3 62 0 5 3 1>
 <7 3 3 47 0 5 5 2>
 <7 3 3 40 0 5 7 3>
 <7 3 3 35 0 5 9 4>
 <7 3 3 29 0 5 13 5>
 <7 4 7 27 0 3 5 1>
 <7 4 7 20 0 3 8 2>
 <7 4 7 17 0 3 12 3>
 <7 4 7 15 0 3 15 4>
 <7 4 7 12 0 3 22 5>
 <7 5 6 5 0 7 5 1>
 <7 5 6 3 0 7 8 2>
 <7 5 6 3 0 7 12 3>
 <7 5 6 2 0 7 15 4>
 <7 5 6 2 0 7 22 5>
 <7 6 2 65 0 6 4 1>
 <7 6 2 50 0 6 6 2>
 <7 6 2 41 0 6 9 3>
 <7 6 2 37 0 6 12 4>
 <7 6 2 30 0 6 17 5>
 <7 7 4 100 0 2 3 1>
 <7 7 4 76 0 2 5 2>
 <7 7 4 64 0 2 7 3>
 <7 7 4 57 0 2 9 4>
 <7 7 4 47 0 2 13 5>
 <7 8 15 65 0 4 3 1>
 <7 8 15 50 0 4 5 2>
 <7 8 15 41 0 4 7 3>
 <7 8 15 37 0 4 9 4>
 <7 8 15 30 0 4 13 5>
 <7 9 11 82 0 15 3 1>
 <7 9 11 63 0 15 5 2>
 <7 9 11 52 0 15 7 3>
 <7 9 11 46 0 15 9 4>
 <7 9 11 39 0 15 13 5>
 <7 10 8 89 0 11 3 1>
 <7 10 8 68 0 11 5 2>
 <7 10 8 57 0 11 7 3>
 <7 10 8 50 0 11 9 4>
 <7 10 8 42 0 11 13 5>
 <7 11 14 81 0 8 3 1>
 <7 11 14 62 0 8 5 2>
 <7 11 14 52 0 8 7 3>
 <7 11 14 46 0 8 9 4>
 <7 11 14 38 0 8 13 5>
 <7 12 10 92 0 14 4 1>
 <7 12 10 70 0 14 6 2>
 <7 12 10 59 0 14 9 3>
 <7 12 10 52 0 14 12 4>
 <7 12 10 43 0 14 17 5>
 <7 13 9 38 0 10 4 1>
 <7 13 9 29 0 10 6 2>
 <7 13 9 24 0 10 9 3>
 <7 13 9 21 0 10 12 4>
 <7 13 9 18 0 10 17 5>
 <7 14 12 47 0 9 3 1>
 <7 14 12 36 0 9 5 2>
 <7 14 12 30 0 9 7 3>
 <7 14 12 26 0 9 9 4>
 <7 14 12 22 0 9 13 5>
 <7 15 13 96 1 12 4 1>
 <7 15 13 73 1 12 6 2>
 <7 15 13 61 1 12 9 3>
 <7 15 13 54 1 12 12 4>
 <7 15 13 45 1 12 17 5>
 <8 1 7 98 0 16 3 1>
 <8 1 7 75 0 16 5 2>
 <8 1 7 63 0 16 7 3>
 <8 1 7 56 0 16 9 4>
 <8 1 7 46 0 16 13 5>
 <8 2 5 24 0 7 4 1>
 <8 2 5 18 0 7 6 2>
 <8 2 5 15 0 7 9 3>
 <8 2 5 13 0 7 12 4>
 <8 2 5 11 0 7 17 5>
 <8 3 3 75 0 5 5 1>
 <8 3 3 57 0 5 8 2>
 <8 3 3 48 0 5 12 3>
 <8 3 3 42 0 5 15 4>
 <8 3 3 35 0 5 22 5>
 <8 4 1 57 0 3 3 1>
 <8 4 1 43 0 3 5 2>
 <8 4 1 36 0 3 7 3>
 <8 4 1 32 0 3 9 4>
 <8 4 1 27 0 3 13 5>
 <8 5 2 93 0 1 3 1>
 <8 5 2 71 0 1 5 2>
 <8 5 2 60 0 1 7 3>
 <8 5 2 53 0 1 9 4>
 <8 5 2 44 0 1 13 5>
 <8 6 4 74 0 2 5 1>
 <8 6 4 56 0 2 8 2>
 <8 6 4 47 0 2 12 3>
 <8 6 4 42 0 2 15 4>
 <8 6 4 35 0 2 22 5>
 <8 7 6 10 0 4 3 1>
 <8 7 6 7 0 4 5 2>
 <8 7 6 6 0 4 7 3>
 <8 7 6 5 0 4 9 4>
 <8 7 6 4 0 4 13 5>
 <8 8 8 44 0 6 3 1>
 <8 8 8 33 0 6 5 2>
 <8 8 8 28 0 6 7 3>
 <8 8 8 25 0 6 9 4>
 <8 8 8 20 0 6 13 5>
 <8 9 14 59 0 8 3 1>
 <8 9 14 45 0 8 5 2>
 <8 9 14 38 0 8 7 3>
 <8 9 14 33 0 8 9 4>
 <8 9 14 28 0 8 13 5>
 <8 10 12 51 0 14 4 1>
 <8 10 12 39 0 14 6 2>
 <8 10 12 32 0 14 9 3>
 <8 10 12 29 0 14 12 4>
 <8 10 12 24 0 14 17 5>
 <8 11 13 82 0 12 3 1>
 <8 11 13 63 0 12 5 2>
 <8 11 13 52 0 12 7 3>
 <8 11 13 46 0 12 9 4>
 <8 11 13 39 0 12 13 5>
 <8 12 15 65 0 13 3 1>
 <8 12 15 50 0 13 5 2>
 <8 12 15 41 0 13 7 3>
 <8 12 15 37 0 13 9 4>
 <8 12 15 30 0 13 13 5>
 <8 13 11 8 0 15 3 1>
 <8 13 11 6 0 15 5 2>
 <8 13 11 5 0 15 7 3>
 <8 13 11 4 0 15 9 4>
 <8 13 11 3 0 15 13 5>
 <8 14 9 12 0 11 5 1>
 <8 14 9 9 0 11 8 2>
 <8 14 9 7 0 11 12 3>
 <8 14 9 6 0 11 15 4>
 <8 14 9 5 0 11 22 5>
 <8 15 10 24 1 9 4 1>
 <8 15 10 18 1 9 6 2>
 <8 15 10 15 1 9 9 3>
 <8 15 10 13 1 9 12 4>
 <8 15 10 11 1 9 17 5>
 <9 1 5 55 0 16 3 1>
 <9 1 5 42 0 16 5 2>
 <9 1 5 35 0 16 7 3>
 <9 1 5 31 0 16 9 4>
 <9 1 5 26 0 16 13 5>
 <9 2 1 44 0 5 4 1>
 <9 2 1 33 0 5 6 2>
 <9 2 1 28 0 5 9 3>
 <9 2 1 25 0 5 12 4>
 <9 2 1 20 0 5 17 5>
 <9 3 4 47 0 1 5 1>
 <9 3 4 36 0 1 8 2>
 <9 3 4 30 0 1 12 3>
 <9 3 4 26 0 1 15 4>
 <9 3 4 22 0 1 22 5>
 <9 4 6 75 0 4 5 1>
 <9 4 6 57 0 4 8 2>
 <9 4 6 48 0 4 12 3>
 <9 4 6 42 0 4 15 4>
 <9 4 6 35 0 4 22 5>
 <9 5 3 81 0 6 4 1>
 <9 5 3 62 0 6 6 2>
 <9 5 3 52 0 6 9 3>
 <9 5 3 46 0 6 12 4>
 <9 5 3 38 0 6 17 5>
 <9 6 7 30 0 3 5 1>
 <9 6 7 23 0 3 8 2>
 <9 6 7 19 0 3 12 3>
 <9 6 7 17 0 3 15 4>
 <9 6 7 14 0 3 22 5>
 <9 7 2 42 0 7 5 1>
 <9 7 2 32 0 7 8 2>
 <9 7 2 27 0 7 12 3>
 <9 7 2 24 0 7 15 4>
 <9 7 2 20 0 7 22 5>
 <9 8 11 100 0 2 4 1>
 <9 8 11 76 0 2 6 2>
 <9 8 11 64 0 2 9 3>
 <9 8 11 57 0 2 12 4>
 <9 8 11 47 0 2 17 5>
 <9 9 9 81 0 11 4 1>
 <9 9 9 62 0 11 6 2>
 <9 9 9 52 0 11 9 3>
 <9 9 9 46 0 11 12 4>
 <9 9 9 38 0 11 17 5>
 <9 10 8 29 0 9 3 1>
 <9 10 8 22 0 9 5 2>
 <9 10 8 18 0 9 7 3>
 <9 10 8 16 0 9 9 4>
 <9 10 8 13 0 9 13 5>
 <9 11 14 31 0 8 5 1>
 <9 11 14 23 0 8 8 2>
 <9 11 14 20 0 8 12 3>
 <9 11 14 17 0 8 15 4>
 <9 11 14 14 0 8 22 5>
 <9 12 10 47 0 14 5 1>
 <9 12 10 36 0 14 8 2>
 <9 12 10 30 0 14 12 3>
 <9 12 10 26 0 14 15 4>
 <9 12 10 22 0 14 22 5>
 <9 13 12 34 0 10 4 1>
 <9 13 12 26 0 10 6 2>
 <9 13 12 21 0 10 9 3>
 <9 13 12 19 0 10 12 4>
 <9 13 12 16 0 10 17 5>
 <9 14 13 77 0 12 5 1>
 <9 14 13 59 0 12 8 2>
 <9 14 13 49 0 12 12 3>
 <9 14 13 44 0 12 15 4>
 <9 14 13 36 0 12 22 5>
 <9 15 15 92 1 13 5 1>
 <9 15 15 70 1 13 8 2>
 <9 15 15 59 1 13 12 3>
 <9 15 15 52 1 13 15 4>
 <9 15 15 43 1 13 22 5>
 <10 1 3 18 0 16 4 1>
 <10 1 3 13 0 16 6 2>
 <10 1 3 11 0 16 9 3>
 <10 1 3 10 0 16 12 4>
 <10 1 3 8 0 16 17 5>
 <10 2 6 42 0 3 5 1>
 <10 2 6 32 0 3 8 2>
 <10 2 6 27 0 3 12 3>
 <10 2 6 24 0 3 15 4>
 <10 2 6 20 0 3 22 5>
 <10 3 1 37 0 6 3 1>
 <10 3 1 28 0 6 5 2>
 <10 3 1 23 0 6 7 3>
 <10 3 1 21 0 6 9 4>
 <10 3 1 17 0 6 13 5>
 <10 4 5 1 0 1 4 1>
 <10 4 5 0 0 1 6 2>
 <10 4 5 0 0 1 9 3>
 <10 4 5 0 0 1 12 4>
 <10 4 5 0 0 1 17 5>
 <10 5 4 67 0 5 4 1>
 <10 5 4 51 0 5 6 2>
 <10 5 4 43 0 5 9 3>
 <10 5 4 38 0 5 12 4>
 <10 5 4 31 0 5 17 5>
 <10 6 7 20 0 4 5 1>
 <10 6 7 15 0 4 8 2>
 <10 6 7 12 0 4 12 3>
 <10 6 7 11 0 4 15 4>
 <10 6 7 9 0 4 22 5>
 <10 7 2 91 0 7 5 1>
 <10 7 2 70 0 7 8 2>
 <10 7 2 58 0 7 12 3>
 <10 7 2 52 0 7 15 4>
 <10 7 2 43 0 7 22 5>
 <10 8 9 21 0 2 3 1>
 <10 8 9 16 0 2 5 2>
 <10 8 9 13 0 2 7 3>
 <10 8 9 12 0 2 9 4>
 <10 8 9 10 0 2 13 5>
 <10 9 15 57 0 9 5 1>
 <10 9 15 43 0 9 8 2>
 <10 9 15 36 0 9 12 3>
 <10 9 15 32 0 9 15 4>
 <10 9 15 27 0 9 22 5>
 <10 10 13 100 0 15 3 1>
 <10 10 13 76 0 15 5 2>
 <10 10 13 64 0 15 7 3>
 <10 10 13 57 0 15 9 4>
 <10 10 13 47 0 15 13 5>
 <10 11 11 100 0 13 4 1>
 <10 11 11 76 0 13 6 2>
 <10 11 11 64 0 13 9 3>
 <10 11 11 57 0 13 12 4>
 <10 11 11 47 0 13 17 5>
 <10 12 12 59 0 11 3 1>
 <10 12 12 45 0 11 5 2>
 <10 12 12 38 0 11 7 3>
 <10 12 12 33 0 11 9 4>
 <10 12 12 28 0 11 13 5>
 <10 13 14 77 0 12 4 1>
 <10 13 14 59 0 12 6 2>
 <10 13 14 49 0 12 9 3>
 <10 13 14 44 0 12 12 4>
 <10 13 14 36 0 12 17 5>
 <10 14 10 21 0 14 4 1>
 <10 14 10 16 0 14 6 2>
 <10 14 10 13 0 14 9 3>
 <10 14 10 12 0 14 12 4>
 <10 14 10 10 0 14 17 5>
 <10 15 8 98 1 10 5 1>
 <10 15 8 75 1 10 8 2>
 <10 15 8 63 1 10 12 3>
 <10 15 8 56 1 10 15 4>
 <10 15 8 46 1 10 22 5>
 <11 1 4 42 0 16 4 1>
 <11 1 4 32 0 16 6 2>
 <11 1 4 27 0 16 9 3>
 <11 1 4 24 0 16 12 4>
 <11 1 4 20 0 16 17 5>
 <11 2 2 16 0 4 5 1>
 <11 2 2 12 0 4 8 2>
 <11 2 2 10 0 4 12 3>
 <11 2 2 9 0 4 15 4>
 <11 2 2 7 0 4 22 5>
 <11 3 5 19 0 2 5 1>
 <11 3 5 14 0 2 8 2>
 <11 3 5 12 0 2 12 3>
 <11 3 5 10 0 2 15 4>
 <11 3 5 9 0 2 22 5>
 <11 4 7 70 0 5 4 1>
 <11 4 7 53 0 5 6 2>
 <11 4 7 45 0 5 9 3>
 <11 4 7 40 0 5 12 4>
 <11 4 7 33 0 5 17 5>
 <11 5 3 7 0 7 3 1>
 <11 5 3 5 0 7 5 2>
 <11 5 3 4 0 7 7 3>
 <11 5 3 4 0 7 9 4>
 <11 5 3 3 0 7 13 5>
 <11 6 1 74 0 3 4 1>
 <11 6 1 56 0 3 6 2>
 <11 6 1 47 0 3 9 3>
 <11 6 1 42 0 3 12 4>
 <11 6 1 35 0 3 17 5>
 <11 7 6 7 0 1 4 1>
 <11 7 6 5 0 1 6 2>
 <11 7 6 4 0 1 9 3>
 <11 7 6 4 0 1 12 4>
 <11 7 6 3 0 1 17 5>
 <11 8 13 50 0 6 5 1>
 <11 8 13 38 0 6 8 2>
 <11 8 13 32 0 6 12 3>
 <11 8 13 28 0 6 15 4>
 <11 8 13 23 0 6 22 5>
 <11 9 10 74 0 13 3 1>
 <11 9 10 56 0 13 5 2>
 <11 9 10 47 0 13 7 3>
 <11 9 10 42 0 13 9 4>
 <11 9 10 35 0 13 13 5>
 <11 10 9 46 0 10 5 1>
 <11 10 9 35 0 10 8 2>
 <11 10 9 29 0 10 12 3>
 <11 10 9 26 0 10 15 4>
 <11 10 9 21 0 10 22 5>
 <11 11 15 88 0 9 3 1>
 <11 11 15 67 0 9 5 2>
 <11 11 15 56 0 9 7 3>
 <11 11 15 50 0 9 9 4>
 <11 11 15 41 0 9 13 5>
 <11 12 14 71 0 15 5 1>
 <11 12 14 54 0 15 8 2>
 <11 12 14 45 0 15 12 3>
 <11 12 14 40 0 15 15 4>
 <11 12 14 33 0 15 22 5>
 <11 13 11 42 0 14 5 1>
 <11 13 11 32 0 14 8 2>
 <11 13 11 27 0 14 12 3>
 <11 13 11 24 0 14 15 4>
 <11 13 11 20 0 14 22 5>
 <11 14 8 34 0 11 4 1>
 <11 14 8 26 0 11 6 2>
 <11 14 8 21 0 11 9 3>
 <11 14 8 19 0 11 12 4>
 <11 14 8 16 0 11 17 5>
 <11 15 12 60 1 8 5 1>
 <11 15 12 46 1 8 8 2>
 <11 15 12 38 1 8 12 3>
 <11 15 12 34 1 8 15 4>
 <11 15 12 28 1 8 22 5>
 <12 1 7 12 0 16 3 1>
 <12 1 7 9 0 16 5 2>
 <12 1 7 7 0 16 7 3>
 <12 1 7 6 0 16 9 4>
 <12 1 7 5 0 16 13 5>
 <12 2 5 45 0 7 5 1>
 <12 2 5 34 0 7 8 2>
 <12 2 5 29 0 7 12 3>
 <12 2 5 25 0 7 15 4>
 <12 2 5 21 0 7 22 5>
 <12 3 3 7 0 5 5 1>
 <12 3 3 5 0 5 8 2>
 <12 3 3 4 0 5 12 3>
 <12 3 3 4 0 5 15 4>
 <12 3 3 3 0 5 22 5>
 <12 4 1 15 0 3 4 1>
 <12 4 1 11 0 3 6 2>
 <12 4 1 9 0 3 9 3>
 <12 4 1 8 0 3 12 4>
 <12 4 1 7 0 3 17 5>
 <12 5 2 22 0 1 4 1>
 <12 5 2 16 0 1 6 2>
 <12 5 2 14 0 1 9 3>
 <12 5 2 12 0 1 12 4>
 <12 5 2 10 0 1 17 5>
 <12 6 4 31 0 2 3 1>
 <12 6 4 23 0 2 5 2>
 <12 6 4 20 0 2 7 3>
 <12 6 4 17 0 2 9 4>
 <12 6 4 14 0 2 13 5>
 <12 7 6 70 0 4 5 1>
 <12 7 6 53 0 4 8 2>
 <12 7 6 45 0 4 12 3>
 <12 7 6 40 0 4 15 4>
 <12 7 6 33 0 4 22 5>
 <12 8 14 88 0 6 5 1>
 <12 8 14 67 0 6 8 2>
 <12 8 14 56 0 6 12 3>
 <12 8 14 50 0 6 15 4>
 <12 8 14 41 0 6 22 5>
 <12 9 10 46 0 14 5 1>
 <12 9 10 35 0 14 8 2>
 <12 9 10 29 0 14 12 3>
 <12 9 10 26 0 14 15 4>
 <12 9 10 21 0 14 22 5>
 <12 10 9 44 0 10 4 1>
 <12 10 9 33 0 10 6 2>
 <12 10 9 28 0 10 9 3>
 <12 10 9 25 0 10 12 4>
 <12 10 9 20 0 10 17 5>
 <12 11 15 45 0 9 5 1>
 <12 11 15 34 0 9 8 2>
 <12 11 15 29 0 9 12 3>
 <12 11 15 25 0 9 15 4>
 <12 11 15 21 0 9 22 5>
 <12 12 13 87 0 15 4 1>
 <12 12 13 66 0 15 6 2>
 <12 12 13 56 0 15 9 3>
 <12 12 13 49 0 15 12 4>
 <12 12 13 41 0 15 17 5>
 <12 13 12 5 0 13 4 1>
 <12 13 12 3 0 13 6 2>
 <12 13 12 3 0 13 9 3>
 <12 13 12 2 0 13 12 4>
 <12 13 12 2 0 13 17 5>
 <12 14 8 99 0 12 3 1>
 <12 14 8 76 0 12 5 2>
 <12 14 8 63 0 12 7 3>
 <12 14 8 56 0 12 9 4>
 <12 14 8 47 0 12 13 5>
 <12 15 11 70 1 8 3 1>
 <12 15 11 53 1 8 5 2>
 <12 15 11 45 1 8 7 3>
 <12 15 11 40 1 8 9 4>
 <12 15 11 33 1 8 13 5>
 <13 1 5 51 0 16 3 1>
 <13 1 5 39 0 16 5 2>
 <13 1 5 32 0 16 7 3>
 <13 1 5 29 0 16 9 4>
 <13 1 5 24 0 16 13 5>
 <13 2 6 39 0 5 5 1>
 <13 2 6 30 0 5 8 2>
 <13 2 6 25 0 5 12 3>
 <13 2 6 22 0 5 15 4>
 <13 2 6 18 0 5 22 5>
 <13 3 1 50 0 6 4 1>
 <13 3 1 38 0 6 6 2>
 <13 3 1 32 0 6 9 3>
 <13 3 1 28 0 6 12 4>
 <13 3 1 23 0 6 17 5>
 <13 4 3 9 0 1 5 1>
 <13 4 3 6 0 1 8 2>
 <13 4 3 5 0 1 12 3>
 <13 4 3 5 0 1 15 4>
 <13 4 3 4 0 1 22 5>
 <13 5 4 23 0 3 5 1>
 <13 5 4 17 0 3 8 2>
 <13 5 4 14 0 3 12 3>
 <13 5 4 13 0 3 15 4>
 <13 5 4 10 0 3 22 5>
 <13 6 7 28 0 4 3 1>
 <13 6 7 21 0 4 5 2>
 <13 6 7 18 0 4 7 3>
 <13 6 7 16 0 4 9 4>
 <13 6 7 13 0 4 13 5>
 <13 7 2 49 0 7 3 1>
 <13 7 2 37 0 7 5 2>
 <13 7 2 31 0 7 7 3>
 <13 7 2 28 0 7 9 4>
 <13 7 2 23 0 7 13 5>
 <13 8 14 5 0 2 4 1>
 <13 8 14 3 0 2 6 2>
 <13 8 14 3 0 2 9 3>
 <13 8 14 2 0 2 12 4>
 <13 8 14 2 0 2 17 5>
 <13 9 13 17 0 14 3 1>
 <13 9 13 13 0 14 5 2>
 <13 9 13 10 0 14 7 3>
 <13 9 13 9 0 14 9 4>
 <13 9 13 8 0 14 13 5>
 <13 10 15 40 0 13 5 1>
 <13 10 15 30 0 13 8 2>
 <13 10 15 25 0 13 12 3>
 <13 10 15 22 0 13 15 4>
 <13 10 15 19 0 13 22 5>
 <13 11 11 30 0 15 4 1>
 <13 11 11 23 0 15 6 2>
 <13 11 11 19 0 15 9 3>
 <13 11 11 17 0 15 12 4>
 <13 11 11 14 0 15 17 5>
 <13 12 12 62 0 11 3 1>
 <13 12 12 47 0 11 5 2>
 <13 12 12 40 0 11 7 3>
 <13 12 12 35 0 11 9 4>
 <13 12 12 29 0 11 13 5>
 <13 13 9 65 0 12 4 1>
 <13 13 9 50 0 12 6 2>
 <13 13 9 41 0 12 9 3>
 <13 13 9 37 0 12 12 4>
 <13 13 9 30 0 12 17 5>
 <13 14 8 84 0 9 3 1>
 <13 14 8 64 0 9 5 2>
 <13 14 8 54 0 9 7 3>
 <13 14 8 48 0 9 9 4>
 <13 14 8 40 0 9 13 5>
 <13 15 10 12 1 8 3 1>
 <13 15 10 9 1 8 5 2>
 <13 15 10 7 1 8 7 3>
 <13 15 10 6 1 8 9 4>
 <13 15 10 5 1 8 13 5>
 <14 1 7 92 0 16 5 1>
 <14 1 7 70 0 16 8 2>
 <14 1 7 59 0 16 12 3>
 <14 1 7 52 0 16 15 4>
 <14 1 7 43 0 16 22 5>
 <14 2 1 67 0 7 4 1>
 <14 2 1 51 0 7 6 2>
 <14 2 1 43 0 7 9 3>
 <14 2 1 38 0 7 12 4>
 <14 2 1 31 0 7 17 5>
 <14 3 6 85 0 1 4 1>
 <14 3 6 65 0 1 6 2>
 <14 3 6 54 0 1 9 3>
 <14 3 6 48 0 1 12 4>
 <14 3 6 40 0 1 17 5>
 <14 4 2 88 0 6 5 1>
 <14 4 2 67 0 6 8 2>
 <14 4 2 56 0 6 12 3>
 <14 4 2 50 0 6 15 4>
 <14 4 2 41 0 6 22 5>
 <14 5 4 18 0 2 4 1>
 <14 5 4 13 0 2 6 2>
 <14 5 4 11 0 2 9 3>
 <14 5 4 10 0 2 12 4>
 <14 5 4 8 0 2 17 5>
 <14 6 5 13 0 4 4 1>
 <14 6 5 10 0 4 6 2>
 <14 6 5 8 0 4 9 3>
 <14 6 5 7 0 4 12 4>
 <14 6 5 6 0 4 17 5>
 <14 7 3 70 0 5 4 1>
 <14 7 3 53 0 5 6 2>
 <14 7 3 45 0 5 9 3>
 <14 7 3 40 0 5 12 4>
 <14 7 3 33 0 5 17 5>
 <14 8 8 69 0 3 3 1>
 <14 8 8 53 0 3 5 2>
 <14 8 8 44 0 3 7 3>
 <14 8 8 39 0 3 9 4>
 <14 8 8 32 0 3 13 5>
 <14 9 15 10 0 8 4 1>
 <14 9 15 7 0 8 6 2>
 <14 9 15 6 0 8 9 3>
 <14 9 15 5 0 8 12 4>
 <14 9 15 4 0 8 17 5>
 <14 10 14 52 0 15 5 1>
 <14 10 14 40 0 15 8 2>
 <14 10 14 33 0 15 12 3>
 <14 10 14 29 0 15 15 4>
 <14 10 14 24 0 15 22 5>
 <14 11 9 42 0 14 3 1>
 <14 11 9 32 0 14 5 2>
 <14 11 9 27 0 14 7 3>
 <14 11 9 24 0 14 9 4>
 <14 11 9 20 0 14 13 5>
 <14 12 12 82 0 9 5 1>
 <14 12 12 63 0 9 8 2>
 <14 12 12 52 0 9 12 3>
 <14 12 12 46 0 9 15 4>
 <14 12 12 39 0 9 22 5>
 <14 13 11 19 0 12 3 1>
 <14 13 11 14 0 12 5 2>
 <14 13 11 12 0 12 7 3>
 <14 13 11 10 0 12 9 4>
 <14 13 11 9 0 12 13 5>
 <14 14 13 21 0 11 5 1>
 <14 14 13 16 0 11 8 2>
 <14 14 13 13 0 11 12 3>
 <14 14 13 12 0 11 15 4>
 <14 14 13 10 0 11 22 5>
 <14 15 10 5 1 13 3 1>
 <14 15 10 3 1 13 5 2>
 <14 15 10 3 1 13 7 3>
 <14 15 10 2 1 13 9 4>
 <14 15 10 2 1 13 13 5>
 <15 1 5 34 0 16 3 1>
 <15 1 5 26 0 16 5 2>
 <15 1 5 21 0 16 7 3>
 <15 1 5 19 0 16 9 4>
 <15 1 5 16 0 16 13 5>
 <15 2 1 60 0 5 4 1>
 <15 2 1 46 0 5 6 2>
 <15 2 1 38 0 5 9 3>
 <15 2 1 34 0 5 12 4>
 <15 2 1 28 0 5 17 5>
 <15 3 2 52 0 1 4 1>
 <15 3 2 40 0 1 6 2>
 <15 3 2 33 0 1 9 3>
 <15 3 2 29 0 1 12 4>
 <15 3 2 24 0 1 17 5>
 <15 4 6 70 0 2 3 1>
 <15 4 6 53 0 2 5 2>
 <15 4 6 45 0 2 7 3>
 <15 4 6 40 0 2 9 4>
 <15 4 6 33 0 2 13 5>
 <15 5 3 51 0 6 3 1>
 <15 5 3 39 0 6 5 2>
 <15 5 3 32 0 6 7 3>
 <15 5 3 29 0 6 9 4>
 <15 5 3 24 0 6 13 5>
 <15 6 7 2 0 3 5 1>
 <15 6 7 1 0 3 8 2>
 <15 6 7 1 0 3 12 3>
 <15 6 7 1 0 3 15 4>
 <15 6 7 0 0 3 22 5>
 <15 7 4 43 0 7 5 1>
 <15 7 4 33 0 7 8 2>
 <15 7 4 27 0 7 12 3>
 <15 7 4 24 0 7 15 4>
 <15 7 4 20 0 7 22 5>
 <15 8 11 75 0 4 4 1>
 <15 8 11 57 0 4 6 2>
 <15 8 11 48 0 4 9 3>
 <15 8 11 42 0 4 12 4>
 <15 8 11 35 0 4 17 5>
 <15 9 12 45 0 11 3 1>
 <15 9 12 34 0 11 5 2>
 <15 9 12 29 0 11 7 3>
 <15 9 12 25 0 11 9 4>
 <15 9 12 21 0 11 13 5>
 <15 10 9 53 0 12 4 1>
 <15 10 9 40 0 12 6 2>
 <15 10 9 34 0 12 9 3>
 <15 10 9 30 0 12 12 4>
 <15 10 9 25 0 12 17 5>
 <15 11 13 96 0 9 4 1>
 <15 11 13 73 0 9 6 2>
 <15 11 13 61 0 9 9 3>
 <15 11 13 54 0 9 12 4>
 <15 11 13 45 0 9 17 5>
 <15 12 14 1 0 13 5 1>
 <15 12 14 0 0 13 8 2>
 <15 12 14 0 0 13 12 3>
 <15 12 14 0 0 13 15 4>
 <15 12 14 0 0 13 22 5>
 <15 13 15 44 0 14 4 1>
 <15 13 15 33 0 14 6 2>
 <15 13 15 28 0 14 9 3>
 <15 13 15 25 0 14 12 4>
 <15 13 15 20 0 14 17 5>
 <15 14 8 66 0 15 3 1>
 <15 14 8 50 0 15 5 2>
 <15 14 8 42 0 15 7 3>
 <15 14 8 37 0 15 9 4>
 <15 14 8 31 0 15 13 5>
 <15 15 10 19 1 8 3 1>
 <15 15 10 14 1 8 5 2>
 <15 15 10 12 1 8 7 3>
 <15 15 10 10 1 8 9 4>
 <15 15 10 9 1 8 13 5>
 <16 1 7 31 0 16 5 1>
 <16 1 7 23 0 16 8 2>
 <16 1 7 20 0 16 12 3>
 <16 1 7 17 0 16 15 4>
 <16 1 7 14 0 16 22 5>
 <16 2 2 44 0 7 4 1>
 <16 2 2 33 0 7 6 2>
 <16 2 2 28 0 7 9 3>
 <16 2 2 25 0 7 12 4>
 <16 2 2 20 0 7 17 5>
 <16 3 1 84 0 2 4 1>
 <16 3 1 64 0 2 6 2>
 <16 3 1 54 0 2 9 3>
 <16 3 1 48 0 2 12 4>
 <16 3 1 40 0 2 17 5>
 <16 4 4 16 0 1 4 1>
 <16 4 4 12 0 1 6 2>
 <16 4 4 10 0 1 9 3>
 <16 4 4 9 0 1 12 4>
 <16 4 4 7 0 1 17 5>
 <16 5 5 10 0 4 5 1>
 <16 5 5 7 0 4 8 2>
 <16 5 5 6 0 4 12 3>
 <16 5 5 5 0 4 15 4>
 <16 5 5 4 0 4 22 5>
 <16 6 3 4 0 5 4 1>
 <16 6 3 3 0 5 6 2>
 <16 6 3 2 0 5 9 3>
 <16 6 3 2 0 5 12 4>
 <16 6 3 1 0 5 17 5>
 <16 7 6 48 0 3 4 1>
 <16 7 6 36 0 3 6 2>
 <16 7 6 30 0 3 9 3>
 <16 7 6 27 0 3 12 4>
 <16 7 6 22 0 3 17 5>
 <16 8 14 67 0 6 4 1>
 <16 8 14 51 0 6 6 2>
 <16 8 14 43 0 6 9 3>
 <16 8 14 38 0 6 12 4>
 <16 8 14 31 0 6 17 5>
 <16 9 15 11 0 14 4 1>
 <16 9 15 8 0 14 6 2>
 <16 9 15 7 0 14 9 3>
 <16 9 15 6 0 14 12 4>
 <16 9 15 5 0 14 17 5>
 <16 10 13 21 0 15 3 1>
 <16 10 13 16 0 15 5 2>
 <16 10 13 13 0 15 7 3>
 <16 10 13 12 0 15 9 4>
 <16 10 13 10 0 15 13 5>
 <16 11 9 78 0 13 5 1>
 <16 11 9 60 0 13 8 2>
 <16 11 9 50 0 13 12 3>
 <16 11 9 44 0 13 15 4>
 <16 11 9 37 0 13 22 5>
 <16 12 8 42 0 9 5 1>
 <16 12 8 32 0 9 8 2>
 <16 12 8 27 0 9 12 3>
 <16 12 8 24 0 9 15 4>
 <16 12 8 20 0 9 22 5>
 <16 13 12 44 0 8 5 1>
 <16 13 12 33 0 8 8 2>
 <16 13 12 28 0 8 12 3>
 <16 13 12 25 0 8 15 4>
 <16 13 12 20 0 8 22 5>
 <16 14 10 37 0 12 3 1>
 <16 14 10 28 0 12 5 2>
 <16 14 10 23 0 12 7 3>
 <16 14 10 21 0 12 9 4>
 <16 14 10 17 0 12 13 5>
 <16 15 11 35 1 10 3 1>
 <16 15 11 26 1 10 5 2>
 <16 15 11 22 1 10 7 3>
 <16 15 11 20 1 10 9 4>
 <16 15 11 16 1 10 13 5>
 <17 1 2 20 0 16 4 1>
 <17 1 2 15 0 16 6 2>
 <17 1 2 12 0 16 9 3>
 <17 1 2 11 0 16 12 4>
 <17 1 2 9 0 16 17 5>
 <17 2 5 40 0 2 5 1>
 <17 2 5 30 0 2 8 2>
 <17 2 5 25 0 2 12 3>
 <17 2 5 22 0 2 15 4>
 <17 2 5 19 0 2 22 5>
 <17 3 4 37 0 5 4 1>
 <17 3 4 28 0 5 6 2>
 <17 3 4 23 0 5 9 3>
 <17 3 4 21 0 5 12 4>
 <17 3 4 17 0 5 17 5>
 <17 4 3 68 0 4 3 1>
 <17 4 3 52 0 4 5 2>
 <17 4 3 43 0 4 7 3>
 <17 4 3 38 0 4 9 4>
 <17 4 3 32 0 4 13 5>
 <17 5 7 42 0 3 3 1>
 <17 5 7 32 0 3 5 2>
 <17 5 7 27 0 3 7 3>
 <17 5 7 24 0 3 9 4>
 <17 5 7 20 0 3 13 5>
 <17 6 1 11 0 7 3 1>
 <17 6 1 8 0 7 5 2>
 <17 6 1 7 0 7 7 3>
 <17 6 1 6 0 7 9 4>
 <17 6 1 5 0 7 13 5>
 <17 7 6 6 0 1 3 1>
 <17 7 6 4 0 1 5 2>
 <17 7 6 3 0 1 7 3>
 <17 7 6 3 0 1 9 4>
 <17 7 6 2 0 1 13 5>
 <17 8 11 44 0 6 5 1>
 <17 8 11 33 0 6 8 2>
 <17 8 11 28 0 6 12 3>
 <17 8 11 25 0 6 15 4>
 <17 8 11 20 0 6 22 5>
 <17 9 12 43 0 11 4 1>
 <17 9 12 33 0 11 6 2>
 <17 9 12 27 0 11 9 3>
 <17 9 12 24 0 11 12 4>
 <17 9 12 20 0 11 17 5>
 <17 10 13 17 0 12 4 1>
 <17 10 13 13 0 12 6 2>
 <17 10 13 10 0 12 9 3>
 <17 10 13 9 0 12 12 4>
 <17 10 13 8 0 12 17 5>
 <17 11 15 3 0 13 5 1>
 <17 11 15 2 0 13 8 2>
 <17 11 15 1 0 13 12 3>
 <17 11 15 1 0 13 15 4>
 <17 11 15 1 0 13 22 5>
 <17 12 8 77 0 15 5 1>
 <17 12 8 59 0 15 8 2>
 <17 12 8 49 0 15 12 3>
 <17 12 8 44 0 15 15 4>
 <17 12 8 36 0 15 22 5>
 <17 13 14 100 0 8 4 1>
 <17 13 14 76 0 8 6 2>
 <17 13 14 64 0 8 9 3>
 <17 13 14 57 0 8 12 4>
 <17 13 14 47 0 8 17 5>
 <17 14 10 82 0 14 3 1>
 <17 14 10 63 0 14 5 2>
 <17 14 10 52 0 14 7 3>
 <17 14 10 46 0 14 9 4>
 <17 14 10 39 0 14 13 5>
 <17 15 9 5 1 10 3 1>
 <17 15 9 3 1 10 5 2>
 <17 15 9 3 1 10 7 3>
 <17 15 9 2 1 10 9 4>
 <17 15 9 2 1 10 13 5>
 <18 1 6 14 0 16 3 1>
 <18 1 6 10 0 16 5 2>
 <18 1 6 9 0 16 7 3>
 <18 1 6 8 0 16 9 4>
 <18 1 6 6 0 16 13 5>
 <18 2 1 5 0 6 3 1>
 <18 2 1 3 0 6 5 2>
 <18 2 1 3 0 6 7 3>
 <18 2 1 2 0 6 9 4>
 <18 2 1 2 0 6 13 5>
 <18 3 4 40 0 1 5 1>
 <18 3 4 30 0 1 8 2>
 <18 3 4 25 0 1 12 3>
 <18 3 4 22 0 1 15 4>
 <18 3 4 19 0 1 22 5>
 <18 4 2 70 0 4 4 1>
 <18 4 2 53 0 4 6 2>
 <18 4 2 45 0 4 9 3>
 <18 4 2 40 0 4 12 4>
 <18 4 2 33 0 4 17 5>
 <18 5 5 63 0 2 4 1>
 <18 5 5 48 0 2 6 2>
 <18 5 5 40 0 2 9 3>
 <18 5 5 36 0 2 12 4>
 <18 5 5 30 0 2 17 5>
 <18 6 3 59 0 5 5 1>
 <18 6 3 45 0 5 8 2>
 <18 6 3 38 0 5 12 3>
 <18 6 3 33 0 5 15 4>
 <18 6 3 28 0 5 22 5>
 <18 7 7 42 0 3 4 1>
 <18 7 7 32 0 3 6 2>
 <18 7 7 27 0 3 9 3>
 <18 7 7 24 0 3 12 4>
 <18 7 7 20 0 3 17 5>
 <18 8 10 74 0 7 5 1>
 <18 8 10 56 0 7 8 2>
 <18 8 10 47 0 7 12 3>
 <18 8 10 42 0 7 15 4>
 <18 8 10 35 0 7 22 5>
 <18 9 14 32 0 10 5 1>
 <18 9 14 24 0 10 8 2>
 <18 9 14 20 0 10 12 3>
 <18 9 14 18 0 10 15 4>
 <18 9 14 15 0 10 22 5>
 <18 10 8 50 0 14 4 1>
 <18 10 8 38 0 14 6 2>
 <18 10 8 32 0 14 9 3>
 <18 10 8 28 0 14 12 4>
 <18 10 8 23 0 14 17 5>
 <18 11 11 21 0 8 4 1>
 <18 11 11 16 0 8 6 2>
 <18 11 11 13 0 8 9 3>
 <18 11 11 12 0 8 12 4>
 <18 11 11 10 0 8 17 5>
 <18 12 15 29 0 11 3 1>
 <18 12 15 22 0 11 5 2>
 <18 12 15 18 0 11 7 3>
 <18 12 15 16 0 11 9 4>
 <18 12 15 13 0 11 13 5>
 <18 13 13 83 0 15 5 1>
 <18 13 13 63 0 15 8 2>
 <18 13 13 53 0 15 12 3>
 <18 13 13 47 0 15 15 4>
 <18 13 13 39 0 15 22 5>
 <18 14 12 64 0 13 4 1>
 <18 14 12 49 0 13 6 2>
 <18 14 12 41 0 13 9 3>
 <18 14 12 36 0 13 12 4>
 <18 14 12 30 0 13 17 5>
 <18 15 9 45 1 12 5 1>
 <18 15 9 34 1 12 8 2>
 <18 15 9 29 1 12 12 3>
 <18 15 9 25 1 12 15 4>
 <18 15 9 21 1 12 22 5>
 <19 1 7 70 0 16 3 1>
 <19 1 7 53 0 16 5 2>
 <19 1 7 45 0 16 7 3>
 <19 1 7 40 0 16 9 4>
 <19 1 7 33 0 16 13 5>
 <19 2 1 28 0 7 5 1>
 <19 2 1 21 0 7 8 2>
 <19 2 1 18 0 7 12 3>
 <19 2 1 16 0 7 15 4>
 <19 2 1 13 0 7 22 5>
 <19 3 4 79 0 1 5 1>
 <19 3 4 60 0 1 8 2>
 <19 3 4 50 0 1 12 3>
 <19 3 4 45 0 1 15 4>
 <19 3 4 37 0 1 22 5>
 <19 4 5 25 0 4 5 1>
 <19 4 5 19 0 4 8 2>
 <19 4 5 16 0 4 12 3>
 <19 4 5 14 0 4 15 4>
 <19 4 5 11 0 4 22 5>
 <19 5 6 98 0 5 4 1>
 <19 5 6 75 0 5 6 2>
 <19 5 6 63 0 5 9 3>
 <19 5 6 56 0 5 12 4>
 <19 5 6 46 0 5 17 5>
 <19 6 3 24 0 6 5 1>
 <19 6 3 18 0 6 8 2>
 <19 6 3 15 0 6 12 3>
 <19 6 3 13 0 6 15 4>
 <19 6 3 11 0 6 22 5>
 <19 7 2 54 0 3 5 1>
 <19 7 2 41 0 3 8 2>
 <19 7 2 34 0 3 12 3>
 <19 7 2 30 0 3 15 4>
 <19 7 2 25 0 3 22 5>
 <19 8 13 65 0 2 3 1>
 <19 8 13 50 0 2 5 2>
 <19 8 13 41 0 2 7 3>
 <19 8 13 37 0 2 9 4>
 <19 8 13 30 0 2 13 5>
 <19 9 14 93 0 13 3 1>
 <19 9 14 71 0 13 5 2>
 <19 9 14 60 0 13 7 3>
 <19 9 14 53 0 13 9 4>
 <19 9 14 44 0 13 13 5>
 <19 10 11 74 0 14 5 1>
 <19 10 11 56 0 14 8 2>
 <19 10 11 47 0 14 12 3>
 <19 10 11 42 0 14 15 4>
 <19 10 11 35 0 14 22 5>
 <19 11 8 22 0 11 4 1>
 <19 11 8 16 0 11 6 2>
 <19 11 8 14 0 11 9 3>
 <19 11 8 12 0 11 12 4>
 <19 11 8 10 0 11 17 5>
 <19 12 10 73 0 8 5 1>
 <19 12 10 56 0 8 8 2>
 <19 12 10 47 0 8 12 3>
 <19 12 10 41 0 8 15 4>
 <19 12 10 34 0 8 22 5>
 <19 13 12 75 0 10 3 1>
 <19 13 12 57 0 10 5 2>
 <19 13 12 48 0 10 7 3>
 <19 13 12 42 0 10 9 4>
 <19 13 12 35 0 10 13 5>
 <19 14 9 69 0 12 5 1>
 <19 14 9 53 0 12 8 2>
 <19 14 9 44 0 12 12 3>
 <19 14 9 39 0 12 15 4>
 <19 14 9 32 0 12 22 5>
 <19 15 15 9 1 9 3 1>
 <19 15 15 6 1 9 5 2>
 <19 15 15 5 1 9 7 3>
 <19 15 15 5 1 9 9 4>
 <19 15 15 4 1 9 13 5>
 <20 1 6 100 0 16 5 1>
 <20 1 6 76 0 16 8 2>
 <20 1 6 64 0 16 12 3>
 <20 1 6 57 0 16 15 4>
 <20 1 6 47 0 16 22 5>
 <20 2 3 46 0 6 4 1>
 <20 2 3 35 0 6 6 2>
 <20 2 3 29 0 6 9 3>
 <20 2 3 26 0 6 12 4>
 <20 2 3 21 0 6 17 5>
 <20 3 5 69 0 3 4 1>
 <20 3 5 53 0 3 6 2>
 <20 3 5 44 0 3 9 3>
 <20 3 5 39 0 3 12 4>
 <20 3 5 32 0 3 17 5>
 <20 4 4 41 0 5 3 1>
 <20 4 4 31 0 5 5 2>
 <20 4 4 26 0 5 7 3>
 <20 4 4 23 0 5 9 4>
 <20 4 4 19 0 5 13 5>
 <20 5 2 3 0 4 5 1>
 <20 5 2 2 0 4 8 2>
 <20 5 2 1 0 4 12 3>
 <20 5 2 1 0 4 15 4>
 <20 5 2 1 0 4 22 5>
 <20 6 7 18 0 2 3 1>
 <20 6 7 13 0 2 5 2>
 <20 6 7 11 0 2 7 3>
 <20 6 7 10 0 2 9 4>
 <20 6 7 8 0 2 13 5>
 <20 7 1 41 0 7 3 1>
 <20 7 1 31 0 7 5 2>
 <20 7 1 26 0 7 7 3>
 <20 7 1 23 0 7 9 4>
 <20 7 1 19 0 7 13 5>
 <20 8 9 94 0 1 5 1>
 <20 8 9 72 0 1 8 2>
 <20 8 9 60 0 1 12 3>
 <20 8 9 53 0 1 15 4>
 <20 8 9 44 0 1 22 5>
 <20 9 12 97 0 9 5 1>
 <20 9 12 74 0 9 8 2>
 <20 9 12 62 0 9 12 3>
 <20 9 12 55 0 9 15 4>
 <20 9 12 46 0 9 22 5>
 <20 10 13 30 0 12 4 1>
 <20 10 13 23 0 12 6 2>
 <20 10 13 19 0 12 9 3>
 <20 10 13 17 0 12 12 4>
 <20 10 13 14 0 12 17 5>
 <20 11 15 96 0 13 5 1>
 <20 11 15 73 0 13 8 2>
 <20 11 15 61 0 13 12 3>
 <20 11 15 54 0 13 15 4>
 <20 11 15 45 0 13 22 5>
 <20 12 8 7 0 15 4 1>
 <20 12 8 5 0 15 6 2>
 <20 12 8 4 0 15 9 3>
 <20 12 8 4 0 15 12 4>
 <20 12 8 3 0 15 17 5>
 <20 13 10 86 0 8 5 1>
 <20 13 10 66 0 8 8 2>
 <20 13 10 55 0 8 12 3>
 <20 13 10 49 0 8 15 4>
 <20 13 10 40 0 8 22 5>
 <20 14 14 83 0 10 3 1>
 <20 14 14 63 0 10 5 2>
 <20 14 14 53 0 10 7 3>
 <20 14 14 47 0 10 9 4>
 <20 14 14 39 0 10 13 5>
 <20 15 11 90 1 14 4 1>
 <20 15 11 69 1 14 6 2>
 <20 15 11 58 1 14 9 3>
 <20 15 11 51 1 14 12 4>
 <20 15 11 42 1 14 17 5>
};
